proyfinal/src/viki/013/experimentInOfficeAgust.take6.output/3124d9d5-0b69-4f21-b0a4-d0bd51508157.als.dat
{'cnf.clauses': '118081',
 'cnf.totvars': '69608',
 'conflict literals': '94',
 'conflicts': '35',
 'decisions': '10204',
 'memused.mb': '16.82',
 'outcome': 'UNSAT',
 'propagations': '39574',
 'restarts': '1',
 'solver.msecs': 34,
 'task.msecs': 111}
