proyfinal/src/viki/013/experimentInOfficeAgust.take6.output/3124d9d5-0b69-4f21-b0a4-d0bd51508157.als.out
Reading from standard input... Use '--help' for help.
============================[ Problem Statistics ]=============================
|                                                                             |
|  Number of variables:         69608                                         |
|  Number of clauses:          118081                                         |
|  Parse time:                   0.03 s                                       |
|                                                                             |
============================[ Search Statistics ]==============================
| Conflicts |          ORIGINAL         |          LEARNT          | Progress |
|           |    Vars  Clauses Literals |    Limit  Clauses Lit/Cl |          |
===============================================================================
===============================================================================
restarts              : 1
conflicts             : 35             (1026 /sec)
decisions             : 10204          (0.00 % random) (299220 /sec)
propagations          : 39574          (1160460 /sec)
conflict literals     : 94             (0.00 % deleted)
Memory used           : 16.82 MB
CPU time              : 0.034102 s

UNSATISFIABLE
